
Gurobi 10.0.3 (win64, gurobi_cl) logging started Wed Oct 25 11:30:50 2023

Set parameter Username
Set parameter LogFile to value "gurobi.log"
Academic license - for non-commercial use only - expires 2024-09-17
Using license file C:\vlado\Private\Backup\licence\gurobi.lic

Gurobi Optimizer version 10.0.3 build v10.0.3rc0 (win64)
Copyright (c) 2023, Gurobi Optimization, LLC

Read LP format model from file .\01-electro-poly.lp
Reading time = 0.01 seconds
: 5 rows, 6 columns, 12 nonzeros

CPU model: Intel(R) Core(TM) i7-8750H CPU @ 2.20GHz, instruction set [SSE2|AVX|AVX2]
Thread count: 6 physical cores, 12 logical processors, using up to 12 threads

Optimize a model with 5 rows, 6 columns and 12 nonzeros
Model fingerprint: 0x24e9136b
Variable types: 0 continuous, 6 integer (0 binary)
Coefficient statistics:
  Matrix range     [1e+00, 3e+00]
  Objective range  [5e+01, 1e+02]
  Bounds range     [0e+00, 0e+00]
  RHS range        [9e+02, 1e+04]
Presolve removed 5 rows and 6 columns
Presolve time: 0.01s
Presolve: All rows and columns removed

Explored 0 nodes (0 simplex iterations) in 0.02 seconds (0.00 work units)
Thread count was 1 (of 12 available processors)

Solution count 1: 453300 

Optimal solution found (tolerance 1.00e-04)
Best objective 4.533000000000e+05, best bound 4.533000000000e+05, gap 0.0000%

Wrote result file '.\01-electo-poly.sol'

